\* Double_Facility_Problem *\
Minimize
Walking_Distance_To_Closest_Facility: ð›¿_0 + ð›¿_1 + ð›¿_10 + ð›¿_11 + ð›¿_12 + ð›¿_13
 + ð›¿_14 + ð›¿_15 + ð›¿_16 + ð›¿_17 + ð›¿_18 + ð›¿_19 + ð›¿_2 + ð›¿_20 + ð›¿_21 + ð›¿_22 + ð›¿_23
 + ð›¿_3 + ð›¿_4 + ð›¿_5 + ð›¿_6 + ð›¿_7 + ð›¿_8 + ð›¿_9
Subject To
_C1: - d_0â†’1 + ð›¿_0 >= 0
_C10: - d_x0â†’2 + u_2 <= 6
_C100: - d_7â†’2 + ð›¿_7 >= 0
_C101: - d_x7â†’1 - u_1 <= -20
_C102: - d_x7â†’1 + u_1 <= 20
_C103: - d_y7â†’1 - v_1 <= -7
_C104: - d_y7â†’1 + v_1 <= 7
_C105: d_x7â†’1 + d_y7â†’1 >= 1
_C106: - d_7â†’1 + 39 d_x7â†’1 + 39 d_y7â†’1 = 0
_C107: - d_x7â†’2 - u_2 <= -20
_C108: - d_x7â†’2 + u_2 <= 20
_C109: - d_y7â†’2 - v_2 <= -7
_C11: - d_y0â†’2 - v_2 <= -1
_C110: - d_y7â†’2 + v_2 <= 7
_C111: d_x7â†’2 + d_y7â†’2 >= 1
_C112: - d_7â†’2 + 39 d_x7â†’2 + 39 d_y7â†’2 = 0
_C113: - d_8â†’1 + ð›¿_8 >= 0
_C114: - d_8â†’2 + ð›¿_8 >= 0
_C115: - d_x8â†’1 - u_1 <= -6
_C116: - d_x8â†’1 + u_1 <= 6
_C117: - d_y8â†’1 - v_1 <= -14
_C118: - d_y8â†’1 + v_1 <= 14
_C119: d_x8â†’1 + d_y8â†’1 >= 1
_C12: - d_y0â†’2 + v_2 <= 1
_C120: - d_8â†’1 + 37 d_x8â†’1 + 37 d_y8â†’1 = 0
_C121: - d_x8â†’2 - u_2 <= -6
_C122: - d_x8â†’2 + u_2 <= 6
_C123: - d_y8â†’2 - v_2 <= -14
_C124: - d_y8â†’2 + v_2 <= 14
_C125: d_x8â†’2 + d_y8â†’2 >= 1
_C126: - d_8â†’2 + 37 d_x8â†’2 + 37 d_y8â†’2 = 0
_C127: - d_9â†’1 + ð›¿_9 >= 0
_C128: - d_9â†’2 + ð›¿_9 >= 0
_C129: - d_x9â†’1 - u_1 <= -6
_C13: d_x0â†’2 + d_y0â†’2 >= 1
_C130: - d_x9â†’1 + u_1 <= 6
_C131: - d_y9â†’1 - v_1 <= -8
_C132: - d_y9â†’1 + v_1 <= 8
_C133: d_x9â†’1 + d_y9â†’1 >= 1
_C134: - d_9â†’1 + 23 d_x9â†’1 + 23 d_y9â†’1 = 0
_C135: - d_x9â†’2 - u_2 <= -6
_C136: - d_x9â†’2 + u_2 <= 6
_C137: - d_y9â†’2 - v_2 <= -8
_C138: - d_y9â†’2 + v_2 <= 8
_C139: d_x9â†’2 + d_y9â†’2 >= 1
_C14: - d_0â†’2 + 28 d_x0â†’2 + 28 d_y0â†’2 = 0
_C140: - d_9â†’2 + 23 d_x9â†’2 + 23 d_y9â†’2 = 0
_C141: - d_10â†’1 + ð›¿_10 >= 0
_C142: - d_10â†’2 + ð›¿_10 >= 0
_C143: - d_x10â†’1 - u_1 <= -23
_C144: - d_x10â†’1 + u_1 <= 23
_C145: - d_y10â†’1 - v_1 <= -16
_C146: - d_y10â†’1 + v_1 <= 16
_C147: d_x10â†’1 + d_y10â†’1 >= 1
_C148: - d_10â†’1 + 29 d_x10â†’1 + 29 d_y10â†’1 = 0
_C149: - d_x10â†’2 - u_2 <= -23
_C15: - d_1â†’1 + ð›¿_1 >= 0
_C150: - d_x10â†’2 + u_2 <= 23
_C151: - d_y10â†’2 - v_2 <= -16
_C152: - d_y10â†’2 + v_2 <= 16
_C153: d_x10â†’2 + d_y10â†’2 >= 1
_C154: - d_10â†’2 + 29 d_x10â†’2 + 29 d_y10â†’2 = 0
_C155: - d_11â†’1 + ð›¿_11 >= 0
_C156: - d_11â†’2 + ð›¿_11 >= 0
_C157: - d_x11â†’1 - u_1 <= -11
_C158: - d_x11â†’1 + u_1 <= 11
_C159: - d_y11â†’1 - v_1 <= -15
_C16: - d_1â†’2 + ð›¿_1 >= 0
_C160: - d_y11â†’1 + v_1 <= 15
_C161: d_x11â†’1 + d_y11â†’1 >= 1
_C162: - d_11â†’1 + 9 d_x11â†’1 + 9 d_y11â†’1 = 0
_C163: - d_x11â†’2 - u_2 <= -11
_C164: - d_x11â†’2 + u_2 <= 11
_C165: - d_y11â†’2 - v_2 <= -15
_C166: - d_y11â†’2 + v_2 <= 15
_C167: d_x11â†’2 + d_y11â†’2 >= 1
_C168: - d_11â†’2 + 9 d_x11â†’2 + 9 d_y11â†’2 = 0
_C169: - d_12â†’1 + ð›¿_12 >= 0
_C17: - d_x1â†’1 - u_1 <= -13
_C170: - d_12â†’2 + ð›¿_12 >= 0
_C171: - d_x12â†’1 - u_1 <= -20
_C172: - d_x12â†’1 + u_1 <= 20
_C173: - d_y12â†’1 - v_1 <= -2
_C174: - d_y12â†’1 + v_1 <= 2
_C175: d_x12â†’1 + d_y12â†’1 >= 1
_C176: - d_12â†’1 + 34 d_x12â†’1 + 34 d_y12â†’1 = 0
_C177: - d_x12â†’2 - u_2 <= -20
_C178: - d_x12â†’2 + u_2 <= 20
_C179: - d_y12â†’2 - v_2 <= -2
_C18: - d_x1â†’1 + u_1 <= 13
_C180: - d_y12â†’2 + v_2 <= 2
_C181: d_x12â†’2 + d_y12â†’2 >= 1
_C182: - d_12â†’2 + 34 d_x12â†’2 + 34 d_y12â†’2 = 0
_C183: - d_13â†’1 + ð›¿_13 >= 0
_C184: - d_13â†’2 + ð›¿_13 >= 0
_C185: - d_x13â†’1 - u_1 <= -11
_C186: - d_x13â†’1 + u_1 <= 11
_C187: - d_y13â†’1 - v_1 <= -3
_C188: - d_y13â†’1 + v_1 <= 3
_C189: d_x13â†’1 + d_y13â†’1 >= 1
_C19: - d_y1â†’1 - v_1 <= -15
_C190: - d_13â†’1 + 23 d_x13â†’1 + 23 d_y13â†’1 = 0
_C191: - d_x13â†’2 - u_2 <= -11
_C192: - d_x13â†’2 + u_2 <= 11
_C193: - d_y13â†’2 - v_2 <= -3
_C194: - d_y13â†’2 + v_2 <= 3
_C195: d_x13â†’2 + d_y13â†’2 >= 1
_C196: - d_13â†’2 + 23 d_x13â†’2 + 23 d_y13â†’2 = 0
_C197: - d_14â†’1 + ð›¿_14 >= 0
_C198: - d_14â†’2 + ð›¿_14 >= 0
_C199: - d_x14â†’1 - u_1 <= -15
_C2: - d_0â†’2 + ð›¿_0 >= 0
_C20: - d_y1â†’1 + v_1 <= 15
_C200: - d_x14â†’1 + u_1 <= 15
_C201: - d_y14â†’1 - v_1 <= -4
_C202: - d_y14â†’1 + v_1 <= 4
_C203: d_x14â†’1 + d_y14â†’1 >= 1
_C204: - d_14â†’1 + 12 d_x14â†’1 + 12 d_y14â†’1 = 0
_C205: - d_x14â†’2 - u_2 <= -15
_C206: - d_x14â†’2 + u_2 <= 15
_C207: - d_y14â†’2 - v_2 <= -4
_C208: - d_y14â†’2 + v_2 <= 4
_C209: d_x14â†’2 + d_y14â†’2 >= 1
_C21: d_x1â†’1 + d_y1â†’1 >= 1
_C210: - d_14â†’2 + 12 d_x14â†’2 + 12 d_y14â†’2 = 0
_C211: - d_15â†’1 + ð›¿_15 >= 0
_C212: - d_15â†’2 + ð›¿_15 >= 0
_C213: - d_x15â†’1 - u_1 <= -4
_C214: - d_x15â†’1 + u_1 <= 4
_C215: - d_y15â†’1 - v_1 <= -17
_C216: - d_y15â†’1 + v_1 <= 17
_C217: d_x15â†’1 + d_y15â†’1 >= 1
_C218: - d_15â†’1 + 3 d_x15â†’1 + 3 d_y15â†’1 = 0
_C219: - d_x15â†’2 - u_2 <= -4
_C22: - d_1â†’1 + 38 d_x1â†’1 + 38 d_y1â†’1 = 0
_C220: - d_x15â†’2 + u_2 <= 4
_C221: - d_y15â†’2 - v_2 <= -17
_C222: - d_y15â†’2 + v_2 <= 17
_C223: d_x15â†’2 + d_y15â†’2 >= 1
_C224: - d_15â†’2 + 3 d_x15â†’2 + 3 d_y15â†’2 = 0
_C225: - d_16â†’1 + ð›¿_16 >= 0
_C226: - d_16â†’2 + ð›¿_16 >= 0
_C227: - d_x16â†’1 - u_1 <= -15
_C228: - d_x16â†’1 + u_1 <= 15
_C229: - d_y16â†’1 - v_1 <= -8
_C23: - d_x1â†’2 - u_2 <= -13
_C230: - d_y16â†’1 + v_1 <= 8
_C231: d_x16â†’1 + d_y16â†’1 >= 1
_C232: - d_16â†’1 + 35 d_x16â†’1 + 35 d_y16â†’1 = 0
_C233: - d_x16â†’2 - u_2 <= -15
_C234: - d_x16â†’2 + u_2 <= 15
_C235: - d_y16â†’2 - v_2 <= -8
_C236: - d_y16â†’2 + v_2 <= 8
_C237: d_x16â†’2 + d_y16â†’2 >= 1
_C238: - d_16â†’2 + 35 d_x16â†’2 + 35 d_y16â†’2 = 0
_C239: - d_17â†’1 + ð›¿_17 >= 0
_C24: - d_x1â†’2 + u_2 <= 13
_C240: - d_17â†’2 + ð›¿_17 >= 0
_C241: - d_x17â†’1 - u_1 <= -20
_C242: - d_x17â†’1 + u_1 <= 20
_C243: - d_y17â†’1 - v_1 <= -11
_C244: - d_y17â†’1 + v_1 <= 11
_C245: d_x17â†’1 + d_y17â†’1 >= 1
_C246: - d_17â†’1 + 40 d_x17â†’1 + 40 d_y17â†’1 = 0
_C247: - d_x17â†’2 - u_2 <= -20
_C248: - d_x17â†’2 + u_2 <= 20
_C249: - d_y17â†’2 - v_2 <= -11
_C25: - d_y1â†’2 - v_2 <= -15
_C250: - d_y17â†’2 + v_2 <= 11
_C251: d_x17â†’2 + d_y17â†’2 >= 1
_C252: - d_17â†’2 + 40 d_x17â†’2 + 40 d_y17â†’2 = 0
_C253: - d_18â†’1 + ð›¿_18 >= 0
_C254: - d_18â†’2 + ð›¿_18 >= 0
_C255: - d_x18â†’1 - u_1 <= -13
_C256: - d_x18â†’1 + u_1 <= 13
_C257: - d_y18â†’1 - v_1 <= -6
_C258: - d_y18â†’1 + v_1 <= 6
_C259: d_x18â†’1 + d_y18â†’1 >= 1
_C26: - d_y1â†’2 + v_2 <= 15
_C260: - d_18â†’1 + 4 d_x18â†’1 + 4 d_y18â†’1 = 0
_C261: - d_x18â†’2 - u_2 <= -13
_C262: - d_x18â†’2 + u_2 <= 13
_C263: - d_y18â†’2 - v_2 <= -6
_C264: - d_y18â†’2 + v_2 <= 6
_C265: d_x18â†’2 + d_y18â†’2 >= 1
_C266: - d_18â†’2 + 4 d_x18â†’2 + 4 d_y18â†’2 = 0
_C267: - d_19â†’1 + ð›¿_19 >= 0
_C268: - d_19â†’2 + ð›¿_19 >= 0
_C269: - d_x19â†’1 - u_1 <= -18
_C27: d_x1â†’2 + d_y1â†’2 >= 1
_C270: - d_x19â†’1 + u_1 <= 18
_C271: - d_y19â†’1 - v_1 <= -9
_C272: - d_y19â†’1 + v_1 <= 9
_C273: d_x19â†’1 + d_y19â†’1 >= 1
_C274: - d_19â†’1 + 33 d_x19â†’1 + 33 d_y19â†’1 = 0
_C275: - d_x19â†’2 - u_2 <= -18
_C276: - d_x19â†’2 + u_2 <= 18
_C277: - d_y19â†’2 - v_2 <= -9
_C278: - d_y19â†’2 + v_2 <= 9
_C279: d_x19â†’2 + d_y19â†’2 >= 1
_C28: - d_1â†’2 + 38 d_x1â†’2 + 38 d_y1â†’2 = 0
_C280: - d_19â†’2 + 33 d_x19â†’2 + 33 d_y19â†’2 = 0
_C281: - d_20â†’1 + ð›¿_20 >= 0
_C282: - d_20â†’2 + ð›¿_20 >= 0
_C283: - d_x20â†’1 - u_1 <= -16
_C284: - d_x20â†’1 + u_1 <= 16
_C285: - d_y20â†’1 - v_1 <= -7
_C286: - d_y20â†’1 + v_1 <= 7
_C287: d_x20â†’1 + d_y20â†’1 >= 1
_C288: - d_20â†’1 + 17 d_x20â†’1 + 17 d_y20â†’1 = 0
_C289: - d_x20â†’2 - u_2 <= -16
_C29: - d_2â†’1 + ð›¿_2 >= 0
_C290: - d_x20â†’2 + u_2 <= 16
_C291: - d_y20â†’2 - v_2 <= -7
_C292: - d_y20â†’2 + v_2 <= 7
_C293: d_x20â†’2 + d_y20â†’2 >= 1
_C294: - d_20â†’2 + 17 d_x20â†’2 + 17 d_y20â†’2 = 0
_C295: - d_21â†’1 + ð›¿_21 >= 0
_C296: - d_21â†’2 + ð›¿_21 >= 0
_C297: - d_x21â†’1 - u_1 <= -2
_C298: - d_x21â†’1 + u_1 <= 2
_C299: - d_y21â†’1 - v_1 <= -6
_C3: - d_x0â†’1 - u_1 <= -6
_C30: - d_2â†’2 + ð›¿_2 >= 0
_C300: - d_y21â†’1 + v_1 <= 6
_C301: d_x21â†’1 + d_y21â†’1 >= 1
_C302: - d_21â†’1 + 7 d_x21â†’1 + 7 d_y21â†’1 = 0
_C303: - d_x21â†’2 - u_2 <= -2
_C304: - d_x21â†’2 + u_2 <= 2
_C305: - d_y21â†’2 - v_2 <= -6
_C306: - d_y21â†’2 + v_2 <= 6
_C307: d_x21â†’2 + d_y21â†’2 >= 1
_C308: - d_21â†’2 + 7 d_x21â†’2 + 7 d_y21â†’2 = 0
_C309: - d_22â†’1 + ð›¿_22 >= 0
_C31: - d_x2â†’1 - u_1 <= -9
_C310: - d_22â†’2 + ð›¿_22 >= 0
_C311: - d_x22â†’1 - u_1 <= -18
_C312: - d_x22â†’1 + u_1 <= 18
_C313: - d_y22â†’1 - v_1 <= -10
_C314: - d_y22â†’1 + v_1 <= 10
_C315: d_x22â†’1 + d_y22â†’1 >= 1
_C316: - d_22â†’1 + 12 d_x22â†’1 + 12 d_y22â†’1 = 0
_C317: - d_x22â†’2 - u_2 <= -18
_C318: - d_x22â†’2 + u_2 <= 18
_C319: - d_y22â†’2 - v_2 <= -10
_C32: - d_x2â†’1 + u_1 <= 9
_C320: - d_y22â†’2 + v_2 <= 10
_C321: d_x22â†’2 + d_y22â†’2 >= 1
_C322: - d_22â†’2 + 12 d_x22â†’2 + 12 d_y22â†’2 = 0
_C323: - d_23â†’1 + ð›¿_23 >= 0
_C324: - d_23â†’2 + ð›¿_23 >= 0
_C325: - d_x23â†’1 - u_1 <= -14
_C326: - d_x23â†’1 + u_1 <= 14
_C327: - d_y23â†’1 - v_1 <= -10
_C328: - d_y23â†’1 + v_1 <= 10
_C329: d_x23â†’1 + d_y23â†’1 >= 1
_C33: - d_y2â†’1 - v_1 <= -9
_C330: - d_23â†’1 + 31 d_x23â†’1 + 31 d_y23â†’1 = 0
_C331: - d_x23â†’2 - u_2 <= -14
_C332: - d_x23â†’2 + u_2 <= 14
_C333: - d_y23â†’2 - v_2 <= -10
_C334: - d_y23â†’2 + v_2 <= 10
_C335: d_x23â†’2 + d_y23â†’2 >= 1
_C336: - d_23â†’2 + 31 d_x23â†’2 + 31 d_y23â†’2 = 0
_C34: - d_y2â†’1 + v_1 <= 9
_C35: d_x2â†’1 + d_y2â†’1 >= 1
_C36: - d_2â†’1 + 35 d_x2â†’1 + 35 d_y2â†’1 = 0
_C37: - d_x2â†’2 - u_2 <= -9
_C38: - d_x2â†’2 + u_2 <= 9
_C39: - d_y2â†’2 - v_2 <= -9
_C4: - d_x0â†’1 + u_1 <= 6
_C40: - d_y2â†’2 + v_2 <= 9
_C41: d_x2â†’2 + d_y2â†’2 >= 1
_C42: - d_2â†’2 + 35 d_x2â†’2 + 35 d_y2â†’2 = 0
_C43: - d_3â†’1 + ð›¿_3 >= 0
_C44: - d_3â†’2 + ð›¿_3 >= 0
_C45: - d_x3â†’1 - u_1 <= -14
_C46: - d_x3â†’1 + u_1 <= 14
_C47: - d_y3â†’1 - v_1 <= -13
_C48: - d_y3â†’1 + v_1 <= 13
_C49: d_x3â†’1 + d_y3â†’1 >= 1
_C5: - d_y0â†’1 - v_1 <= -1
_C50: - d_3â†’1 + 40 d_x3â†’1 + 40 d_y3â†’1 = 0
_C51: - d_x3â†’2 - u_2 <= -14
_C52: - d_x3â†’2 + u_2 <= 14
_C53: - d_y3â†’2 - v_2 <= -13
_C54: - d_y3â†’2 + v_2 <= 13
_C55: d_x3â†’2 + d_y3â†’2 >= 1
_C56: - d_3â†’2 + 40 d_x3â†’2 + 40 d_y3â†’2 = 0
_C57: - d_4â†’1 + ð›¿_4 >= 0
_C58: - d_4â†’2 + ð›¿_4 >= 0
_C59: - d_x4â†’1 - u_1 <= -15
_C6: - d_y0â†’1 + v_1 <= 1
_C60: - d_x4â†’1 + u_1 <= 15
_C61: - d_y4â†’1 - v_1 <= -15
_C62: - d_y4â†’1 + v_1 <= 15
_C63: d_x4â†’1 + d_y4â†’1 >= 1
_C64: - d_4â†’1 + 27 d_x4â†’1 + 27 d_y4â†’1 = 0
_C65: - d_x4â†’2 - u_2 <= -15
_C66: - d_x4â†’2 + u_2 <= 15
_C67: - d_y4â†’2 - v_2 <= -15
_C68: - d_y4â†’2 + v_2 <= 15
_C69: d_x4â†’2 + d_y4â†’2 >= 1
_C7: d_x0â†’1 + d_y0â†’1 >= 1
_C70: - d_4â†’2 + 27 d_x4â†’2 + 27 d_y4â†’2 = 0
_C71: - d_5â†’1 + ð›¿_5 >= 0
_C72: - d_5â†’2 + ð›¿_5 >= 0
_C73: - d_x5â†’1 - u_1 <= -2
_C74: - d_x5â†’1 + u_1 <= 2
_C75: - d_y5â†’1 - v_1 <= -13
_C76: - d_y5â†’1 + v_1 <= 13
_C77: d_x5â†’1 + d_y5â†’1 >= 1
_C78: - d_5â†’1 + 7 d_x5â†’1 + 7 d_y5â†’1 = 0
_C79: - d_x5â†’2 - u_2 <= -2
_C8: - d_0â†’1 + 28 d_x0â†’1 + 28 d_y0â†’1 = 0
_C80: - d_x5â†’2 + u_2 <= 2
_C81: - d_y5â†’2 - v_2 <= -13
_C82: - d_y5â†’2 + v_2 <= 13
_C83: d_x5â†’2 + d_y5â†’2 >= 1
_C84: - d_5â†’2 + 7 d_x5â†’2 + 7 d_y5â†’2 = 0
_C85: - d_6â†’1 + ð›¿_6 >= 0
_C86: - d_6â†’2 + ð›¿_6 >= 0
_C87: - d_x6â†’1 - u_1 <= -1
_C88: - d_x6â†’1 + u_1 <= 1
_C89: - d_y6â†’1 - v_1 <= -16
_C9: - d_x0â†’2 - u_2 <= -6
_C90: - d_y6â†’1 + v_1 <= 16
_C91: d_x6â†’1 + d_y6â†’1 >= 1
_C92: - d_6â†’1 + 35 d_x6â†’1 + 35 d_y6â†’1 = 0
_C93: - d_x6â†’2 - u_2 <= -1
_C94: - d_x6â†’2 + u_2 <= 1
_C95: - d_y6â†’2 - v_2 <= -16
_C96: - d_y6â†’2 + v_2 <= 16
_C97: d_x6â†’2 + d_y6â†’2 >= 1
_C98: - d_6â†’2 + 35 d_x6â†’2 + 35 d_y6â†’2 = 0
_C99: - d_7â†’1 + ð›¿_7 >= 0
Bounds
 d_0â†’1 free
 d_0â†’2 free
 d_10â†’1 free
 d_10â†’2 free
 d_11â†’1 free
 d_11â†’2 free
 d_12â†’1 free
 d_12â†’2 free
 d_13â†’1 free
 d_13â†’2 free
 d_14â†’1 free
 d_14â†’2 free
 d_15â†’1 free
 d_15â†’2 free
 d_16â†’1 free
 d_16â†’2 free
 d_17â†’1 free
 d_17â†’2 free
 d_18â†’1 free
 d_18â†’2 free
 d_19â†’1 free
 d_19â†’2 free
 d_1â†’1 free
 d_1â†’2 free
 d_20â†’1 free
 d_20â†’2 free
 d_21â†’1 free
 d_21â†’2 free
 d_22â†’1 free
 d_22â†’2 free
 d_23â†’1 free
 d_23â†’2 free
 d_2â†’1 free
 d_2â†’2 free
 d_3â†’1 free
 d_3â†’2 free
 d_4â†’1 free
 d_4â†’2 free
 d_5â†’1 free
 d_5â†’2 free
 d_6â†’1 free
 d_6â†’2 free
 d_7â†’1 free
 d_7â†’2 free
 d_8â†’1 free
 d_8â†’2 free
 d_9â†’1 free
 d_9â†’2 free
 d_x0â†’1 free
 d_x0â†’2 free
 d_x10â†’1 free
 d_x10â†’2 free
 d_x11â†’1 free
 d_x11â†’2 free
 d_x12â†’1 free
 d_x12â†’2 free
 d_x13â†’1 free
 d_x13â†’2 free
 d_x14â†’1 free
 d_x14â†’2 free
 d_x15â†’1 free
 d_x15â†’2 free
 d_x16â†’1 free
 d_x16â†’2 free
 d_x17â†’1 free
 d_x17â†’2 free
 d_x18â†’1 free
 d_x18â†’2 free
 d_x19â†’1 free
 d_x19â†’2 free
 d_x1â†’1 free
 d_x1â†’2 free
 d_x20â†’1 free
 d_x20â†’2 free
 d_x21â†’1 free
 d_x21â†’2 free
 d_x22â†’1 free
 d_x22â†’2 free
 d_x23â†’1 free
 d_x23â†’2 free
 d_x2â†’1 free
 d_x2â†’2 free
 d_x3â†’1 free
 d_x3â†’2 free
 d_x4â†’1 free
 d_x4â†’2 free
 d_x5â†’1 free
 d_x5â†’2 free
 d_x6â†’1 free
 d_x6â†’2 free
 d_x7â†’1 free
 d_x7â†’2 free
 d_x8â†’1 free
 d_x8â†’2 free
 d_x9â†’1 free
 d_x9â†’2 free
 d_y0â†’1 free
 d_y0â†’2 free
 d_y10â†’1 free
 d_y10â†’2 free
 d_y11â†’1 free
 d_y11â†’2 free
 d_y12â†’1 free
 d_y12â†’2 free
 d_y13â†’1 free
 d_y13â†’2 free
 d_y14â†’1 free
 d_y14â†’2 free
 d_y15â†’1 free
 d_y15â†’2 free
 d_y16â†’1 free
 d_y16â†’2 free
 d_y17â†’1 free
 d_y17â†’2 free
 d_y18â†’1 free
 d_y18â†’2 free
 d_y19â†’1 free
 d_y19â†’2 free
 d_y1â†’1 free
 d_y1â†’2 free
 d_y20â†’1 free
 d_y20â†’2 free
 d_y21â†’1 free
 d_y21â†’2 free
 d_y22â†’1 free
 d_y22â†’2 free
 d_y23â†’1 free
 d_y23â†’2 free
 d_y2â†’1 free
 d_y2â†’2 free
 d_y3â†’1 free
 d_y3â†’2 free
 d_y4â†’1 free
 d_y4â†’2 free
 d_y5â†’1 free
 d_y5â†’2 free
 d_y6â†’1 free
 d_y6â†’2 free
 d_y7â†’1 free
 d_y7â†’2 free
 d_y8â†’1 free
 d_y8â†’2 free
 d_y9â†’1 free
 d_y9â†’2 free
 0 <= u_1
 0 <= u_2
 0 <= v_1
 0 <= v_2
 ð›¿_0 free
 ð›¿_1 free
 ð›¿_10 free
 ð›¿_11 free
 ð›¿_12 free
 ð›¿_13 free
 ð›¿_14 free
 ð›¿_15 free
 ð›¿_16 free
 ð›¿_17 free
 ð›¿_18 free
 ð›¿_19 free
 ð›¿_2 free
 ð›¿_20 free
 ð›¿_21 free
 ð›¿_22 free
 ð›¿_23 free
 ð›¿_3 free
 ð›¿_4 free
 ð›¿_5 free
 ð›¿_6 free
 ð›¿_7 free
 ð›¿_8 free
 ð›¿_9 free
Generals
d_0â†’1
d_0â†’2
d_10â†’1
d_10â†’2
d_11â†’1
d_11â†’2
d_12â†’1
d_12â†’2
d_13â†’1
d_13â†’2
d_14â†’1
d_14â†’2
d_15â†’1
d_15â†’2
d_16â†’1
d_16â†’2
d_17â†’1
d_17â†’2
d_18â†’1
d_18â†’2
d_19â†’1
d_19â†’2
d_1â†’1
d_1â†’2
d_20â†’1
d_20â†’2
d_21â†’1
d_21â†’2
d_22â†’1
d_22â†’2
d_23â†’1
d_23â†’2
d_2â†’1
d_2â†’2
d_3â†’1
d_3â†’2
d_4â†’1
d_4â†’2
d_5â†’1
d_5â†’2
d_6â†’1
d_6â†’2
d_7â†’1
d_7â†’2
d_8â†’1
d_8â†’2
d_9â†’1
d_9â†’2
d_x0â†’1
d_x0â†’2
d_x10â†’1
d_x10â†’2
d_x11â†’1
d_x11â†’2
d_x12â†’1
d_x12â†’2
d_x13â†’1
d_x13â†’2
d_x14â†’1
d_x14â†’2
d_x15â†’1
d_x15â†’2
d_x16â†’1
d_x16â†’2
d_x17â†’1
d_x17â†’2
d_x18â†’1
d_x18â†’2
d_x19â†’1
d_x19â†’2
d_x1â†’1
d_x1â†’2
d_x20â†’1
d_x20â†’2
d_x21â†’1
d_x21â†’2
d_x22â†’1
d_x22â†’2
d_x23â†’1
d_x23â†’2
d_x2â†’1
d_x2â†’2
d_x3â†’1
d_x3â†’2
d_x4â†’1
d_x4â†’2
d_x5â†’1
d_x5â†’2
d_x6â†’1
d_x6â†’2
d_x7â†’1
d_x7â†’2
d_x8â†’1
d_x8â†’2
d_x9â†’1
d_x9â†’2
d_y0â†’1
d_y0â†’2
d_y10â†’1
d_y10â†’2
d_y11â†’1
d_y11â†’2
d_y12â†’1
d_y12â†’2
d_y13â†’1
d_y13â†’2
d_y14â†’1
d_y14â†’2
d_y15â†’1
d_y15â†’2
d_y16â†’1
d_y16â†’2
d_y17â†’1
d_y17â†’2
d_y18â†’1
d_y18â†’2
d_y19â†’1
d_y19â†’2
d_y1â†’1
d_y1â†’2
d_y20â†’1
d_y20â†’2
d_y21â†’1
d_y21â†’2
d_y22â†’1
d_y22â†’2
d_y23â†’1
d_y23â†’2
d_y2â†’1
d_y2â†’2
d_y3â†’1
d_y3â†’2
d_y4â†’1
d_y4â†’2
d_y5â†’1
d_y5â†’2
d_y6â†’1
d_y6â†’2
d_y7â†’1
d_y7â†’2
d_y8â†’1
d_y8â†’2
d_y9â†’1
d_y9â†’2
u_1
u_2
v_1
v_2
ð›¿_0
ð›¿_1
ð›¿_10
ð›¿_11
ð›¿_12
ð›¿_13
ð›¿_14
ð›¿_15
ð›¿_16
ð›¿_17
ð›¿_18
ð›¿_19
ð›¿_2
ð›¿_20
ð›¿_21
ð›¿_22
ð›¿_23
ð›¿_3
ð›¿_4
ð›¿_5
ð›¿_6
ð›¿_7
ð›¿_8
ð›¿_9
End
